benchmark/results/graph__15-1000-0.10-03_9/error_log/graph__15-1000-0.10-03_9_QuintonOs_Benders_primal_sub_ERRORLOG.lp
\ This file has been generated by DOcplex
\ ENCODING=ISO-8859-1
\Problem name: Quinton Bounded Benders_primal_sub

Maximize
 obj: tau
Subject To
 c1: tau <= 0.002150537634
 c2: y_a0_proc_0 + y_a0_proc_1 + y_a0_proc_2 - tau = 0
 c3: y_a0_proc_0 <= 0
 c4: y_a0_proc_1 <= 0
 c5: y_a0_proc_2 <= 1
 c6: tau <= 0.002898550725
 c7: y_a1_proc_1 - tau = 0
 c8: y_a1_proc_1 <= 1
 c9: tau <= 0.003521126761
 c10: y_a2_proc_0 + y_a2_proc_1 + y_a2_proc_2 - tau = 0
 c11: y_a2_proc_0 <= 0
 c12: y_a2_proc_1 <= 0
 c13: y_a2_proc_2 <= 1
 c14: tau <= 0.001845018450
 c15: y_a3_proc_0 + y_a3_proc_1 + y_a3_proc_2 - tau = 0
 c16: y_a3_proc_0 <= 1
 c17: y_a3_proc_1 <= 0
 c18: y_a3_proc_2 <= 0
 c19: tau <= 0.000887311446
 c20: y_a4_proc_2 - tau = 0
 c21: y_a4_proc_2 <= 1
 c22: tau <= 0.001517450683
 c23: y_a5_proc_0 + y_a5_proc_1 + y_a5_proc_2 - tau = 0
 c24: y_a5_proc_0 <= 1
 c25: y_a5_proc_1 <= 0
 c26: y_a5_proc_2 <= 0
 c27: tau <= 0.000921658986
 c28: y_a6_proc_0 + y_a6_proc_1 - tau = 0
 c29: y_a6_proc_0 <= 1
 c30: y_a6_proc_1 <= 0
 c31: tau <= 0.002481389578
 c32: y_a7_proc_0 + y_a7_proc_1 + y_a7_proc_2 - tau = 0
 c33: y_a7_proc_0 <= 1
 c34: y_a7_proc_1 <= 0
 c35: y_a7_proc_2 <= 0
 c36: tau <= 0.000940733772
 c37: y_a8_proc_0 + y_a8_proc_1 + y_a8_proc_2 - tau = 0
 c38: y_a8_proc_0 <= 1
 c39: y_a8_proc_1 <= 0
 c40: y_a8_proc_2 <= 0
 c41: tau <= 0.000874890639
 c42: y_a9_proc_0 + y_a9_proc_2 - tau = 0
 c43: y_a9_proc_0 <= 0
 c44: y_a9_proc_2 <= 1
 c45: tau <= 0.000857632933
 c46: y_a10_proc_0 + y_a10_proc_1 + y_a10_proc_2 - tau = 0
 c47: y_a10_proc_0 <= 0
 c48: y_a10_proc_1 <= 0
 c49: y_a10_proc_2 <= 1
 c50: tau <= 0.001070663812
 c51: y_a11_proc_0 + y_a11_proc_1 - tau = 0
 c52: y_a11_proc_0 <= 0
 c53: y_a11_proc_1 <= 1
 c54: tau <= 0.000827814570
 c55: y_a12_proc_0 + y_a12_proc_1 + y_a12_proc_2 - tau = 0
 c56: y_a12_proc_0 <= 0
 c57: y_a12_proc_1 <= 1
 c58: y_a12_proc_2 <= 0
 c59: tau <= 0.000869565217
 c60: y_a13_proc_0 - tau = 0
 c61: y_a13_proc_0 <= 1
 c62: tau <= 0.000811030008
 c63: y_a14_proc_0 + y_a14_proc_1 + y_a14_proc_2 - tau = 0
 c64: y_a14_proc_0 <= 0
 c65: y_a14_proc_1 <= 1
 c66: y_a14_proc_2 <= 0
 c67: u_a0 - u_a1 - 345 y_a1_proc_1 >= 0
 c68: u_a1 - u_a2 - 862 y_a2_proc_0 - 1130 y_a2_proc_1 - 284 y_a2_proc_2 >= 0
 c69: u_a2 - u_a3 - 542 y_a3_proc_0 - 1286 y_a3_proc_1 - 470 y_a3_proc_2 >= 0
 c70: u_a4 - u_a0 - 1207 y_a0_proc_0 - 574 y_a0_proc_1 - 465 y_a0_proc_2 >= 0
 c71: u_a5 - u_a0 - 1207 y_a0_proc_0 - 574 y_a0_proc_1 - 465 y_a0_proc_2 >= 0
 c72: u_a0 - u_a6 - 1085 y_a6_proc_0 - 1165 y_a6_proc_1 >= 0
 c73: u_a7 - u_a1 - 345 y_a1_proc_1 >= 0
 c74: u_a8 - u_a0 - 1207 y_a0_proc_0 - 574 y_a0_proc_1 - 465 y_a0_proc_2 >= 0
 c75: u_a9 - u_a5 - 659 y_a5_proc_0 - 1211 y_a5_proc_1 - 1192 y_a5_proc_2 >= 0
 c76: u_a10 - u_a8 - 1063 y_a8_proc_0 - 801 y_a8_proc_1 - 922 y_a8_proc_2 >= 0
 c77: u_a11 - u_a9 - 1208 y_a9_proc_0 - 1143 y_a9_proc_2 >= 0
 c78: u_a3 - u_a12 - 696 y_a12_proc_0 - 1208 y_a12_proc_1 - 1003 y_a12_proc_2
       >= 0
 c79: u_a6 - u_a13 - 1150 y_a13_proc_0 >= -1
 c80: u_a7 - u_a14 - 898 y_a14_proc_0 - 1233 y_a14_proc_1 - 1032 y_a14_proc_2
       >= -1
 c81: u_a4 - u_a11 - 693 y_a11_proc_0 - 934 y_a11_proc_1 >= 0
 c82: u_a12 - u_a10 - 956 y_a10_proc_0 - 1118 y_a10_proc_1 - 1166 y_a10_proc_2
       >= -1
 c83: - 1063 y_a8_proc_0 - 801 y_a8_proc_1 - 922 y_a8_proc_2 >= -1
 c84: u_a14 - u_a7 - 403 y_a7_proc_0 - 764 y_a7_proc_1 - 593 y_a7_proc_2 >= 0
 c85: u_a4 - u_a8 - 1063 y_a8_proc_0 - 801 y_a8_proc_1 - 922 y_a8_proc_2 >= 0
 c86: u_a14 - u_a11 - 693 y_a11_proc_0 - 934 y_a11_proc_1 >= 0
 c87: u_a14 - u_a12 - 696 y_a12_proc_0 - 1208 y_a12_proc_1 - 1003 y_a12_proc_2
       >= 0
 c88: u_a7 - u_a10 - 956 y_a10_proc_0 - 1118 y_a10_proc_1 - 1166 y_a10_proc_2
       >= 0
 c89: u_a6 - u_a10 - 956 y_a10_proc_0 - 1118 y_a10_proc_1 - 1166 y_a10_proc_2
       >= -1
 c90: u_a6 - u_a4 - 1127 y_a4_proc_2 >= -1
 c91: u_a12 - u_a11 - 693 y_a11_proc_0 - 934 y_a11_proc_1 >= -1
 c92: u_a13 - u_a5 - 659 y_a5_proc_0 - 1211 y_a5_proc_1 - 1192 y_a5_proc_2 >= 0
 c93: u_a3 - u_a4 - 1127 y_a4_proc_2 >= -1
 c94: u_a1 - u_a0 - 574 y_a0_proc_1 >= -1304
 c95: u_a0 - u_a1 - 345 y_a1_proc_1 >= -1269
 c96: u_a2 - u_a0 - 465 y_a0_proc_2 >= -1
 c97: u_a2 - u_a0 - 1207 y_a0_proc_0 >= -2573
 c98: u_a2 - u_a0 - 574 y_a0_proc_1 >= -2573
 c99: u_a0 - u_a2 - 284 y_a2_proc_2 >= 0
 c100: u_a0 - u_a2 - 862 y_a2_proc_0 >= -2572
 c101: u_a0 - u_a2 - 1130 y_a2_proc_1 >= -2572
 c102: u_a3 - u_a0 - 465 y_a0_proc_2 >= -1304
 c103: u_a3 - u_a0 - 1207 y_a0_proc_0 >= -1304
 c104: u_a3 - u_a0 - 574 y_a0_proc_1 >= -2590
 c105: u_a0 - u_a3 - 470 y_a3_proc_2 >= -1269
 c106: u_a0 - u_a3 - 542 y_a3_proc_0 >= -1269
 c107: u_a0 - u_a3 - 1286 y_a3_proc_1 >= -2555
 c108: u_a4 - u_a0 - 465 y_a0_proc_2 >= 0
 c109: u_a0 - u_a4 - 1127 y_a4_proc_2 >= -1
 c110: u_a5 - u_a0 - 465 y_a0_proc_2 >= -1304
 c111: u_a5 - u_a0 - 1207 y_a0_proc_0 >= -1304
 c112: u_a5 - u_a0 - 574 y_a0_proc_1 >= -2590
 c113: u_a0 - u_a5 - 1192 y_a5_proc_2 >= -1269
 c114: u_a0 - u_a5 - 659 y_a5_proc_0 >= -1269
 c115: u_a0 - u_a5 - 1211 y_a5_proc_1 >= -2555
 c116: u_a6 - u_a0 - 1207 y_a0_proc_0 >= -1304
 c117: u_a6 - u_a0 - 574 y_a0_proc_1 >= -2590
 c118: u_a0 - u_a6 - 1085 y_a6_proc_0 >= -1269
 c119: u_a0 - u_a6 - 1165 y_a6_proc_1 >= -2555
 c120: u_a7 - u_a0 - 465 y_a0_proc_2 >= -1269
 c121: u_a7 - u_a0 - 1207 y_a0_proc_0 >= -1269
 c122: u_a7 - u_a0 - 574 y_a0_proc_1 >= -2555
 c123: u_a0 - u_a7 - 593 y_a7_proc_2 >= -1304
 c124: u_a0 - u_a7 - 403 y_a7_proc_0 >= -1304
 c125: u_a0 - u_a7 - 764 y_a7_proc_1 >= -2590
 c126: u_a8 - u_a0 - 465 y_a0_proc_2 >= -1304
 c127: u_a8 - u_a0 - 1207 y_a0_proc_0 >= -1304
 c128: u_a8 - u_a0 - 574 y_a0_proc_1 >= -2590
 c129: u_a0 - u_a8 - 922 y_a8_proc_2 >= -1269
 c130: u_a0 - u_a8 - 1063 y_a8_proc_0 >= -1269
 c131: u_a0 - u_a8 - 801 y_a8_proc_1 >= -2555
 c132: u_a9 - u_a0 - 465 y_a0_proc_2 >= 0
 c133: u_a9 - u_a0 - 1207 y_a0_proc_0 >= -2572
 c134: u_a0 - u_a9 - 1143 y_a9_proc_2 >= -1
 c135: u_a0 - u_a9 - 1208 y_a9_proc_0 >= -2573
 c136: u_a10 - u_a0 - 465 y_a0_proc_2 >= 0
 c137: u_a10 - u_a0 - 1207 y_a0_proc_0 >= -2572
 c138: u_a10 - u_a0 - 574 y_a0_proc_1 >= -2572
 c139: u_a0 - u_a10 - 1166 y_a10_proc_2 >= -1
 c140: u_a0 - u_a10 - 956 y_a10_proc_0 >= -2573
 c141: u_a0 - u_a10 - 1118 y_a10_proc_1 >= -2573
 c142: u_a11 - u_a0 - 1207 y_a0_proc_0 >= -2590
 c143: u_a11 - u_a0 - 574 y_a0_proc_1 >= -1304
 c144: u_a0 - u_a11 - 693 y_a11_proc_0 >= -2555
 c145: u_a0 - u_a11 - 934 y_a11_proc_1 >= -1269
 c146: u_a12 - u_a0 - 465 y_a0_proc_2 >= -1304
 c147: u_a12 - u_a0 - 1207 y_a0_proc_0 >= -2590
 c148: u_a12 - u_a0 - 574 y_a0_proc_1 >= -1304
 c149: u_a0 - u_a12 - 1003 y_a12_proc_2 >= -1269
 c150: u_a0 - u_a12 - 696 y_a12_proc_0 >= -2555
 c151: u_a0 - u_a12 - 1208 y_a12_proc_1 >= -1269
 c152: u_a13 - u_a0 - 1207 y_a0_proc_0 >= -1304
 c153: u_a0 - u_a13 - 1150 y_a13_proc_0 >= -1269
 c154: u_a14 - u_a0 - 465 y_a0_proc_2 >= -1304
 c155: u_a14 - u_a0 - 1207 y_a0_proc_0 >= -2590
 c156: u_a14 - u_a0 - 574 y_a0_proc_1 >= -1304
 c157: u_a0 - u_a14 - 1032 y_a14_proc_2 >= -1269
 c158: u_a0 - u_a14 - 898 y_a14_proc_0 >= -2555
 c159: u_a0 - u_a14 - 1233 y_a14_proc_1 >= -1269
 c160: u_a2 - u_a1 - 345 y_a1_proc_1 >= -1304
 c161: u_a1 - u_a2 - 1130 y_a2_proc_1 >= -1269
 c162: u_a3 - u_a1 - 345 y_a1_proc_1 >= -1304
 c163: u_a1 - u_a3 - 1286 y_a3_proc_1 >= -1269
 c164: u_a5 - u_a1 - 345 y_a1_proc_1 >= -1304
 c165: u_a1 - u_a5 - 1211 y_a5_proc_1 >= -1269
 c166: u_a6 - u_a1 - 345 y_a1_proc_1 >= -1304
 c167: u_a1 - u_a6 - 1165 y_a6_proc_1 >= -1269
 c168: u_a7 - u_a1 - 345 y_a1_proc_1 >= -1304
 c169: u_a1 - u_a7 - 764 y_a7_proc_1 >= -1269
 c170: u_a8 - u_a1 - 345 y_a1_proc_1 >= -1304
 c171: u_a1 - u_a8 - 801 y_a8_proc_1 >= -1269
 c172: u_a10 - u_a1 - 345 y_a1_proc_1 >= -1304
 c173: u_a1 - u_a10 - 1118 y_a10_proc_1 >= -1269
 c174: u_a11 - u_a1 - 345 y_a1_proc_1 >= 0
 c175: u_a1 - u_a11 - 934 y_a11_proc_1 >= -1
 c176: u_a12 - u_a1 - 345 y_a1_proc_1 >= -1
 c177: u_a1 - u_a12 - 1208 y_a12_proc_1 >= 0
 c178: u_a14 - u_a1 - 345 y_a1_proc_1 >= 17
 c179: u_a1 - u_a14 - 1233 y_a14_proc_1 >= -18
 c180: u_a3 - u_a2 - 284 y_a2_proc_2 >= -1304
 c181: u_a3 - u_a2 - 862 y_a2_proc_0 >= -1304
 c182: u_a3 - u_a2 - 1130 y_a2_proc_1 >= -2590
 c183: u_a2 - u_a3 - 470 y_a3_proc_2 >= -1269
 c184: u_a2 - u_a3 - 542 y_a3_proc_0 >= -1269
 c185: u_a2 - u_a3 - 1286 y_a3_proc_1 >= -2555
 c186: u_a4 - u_a2 - 284 y_a2_proc_2 >= 0
 c187: u_a2 - u_a4 - 1127 y_a4_proc_2 >= -1
 c188: u_a5 - u_a2 - 284 y_a2_proc_2 >= -1304
 c189: u_a5 - u_a2 - 862 y_a2_proc_0 >= -1304
 c190: u_a5 - u_a2 - 1130 y_a2_proc_1 >= -2590
 c191: u_a2 - u_a5 - 1192 y_a5_proc_2 >= -1269
 c192: u_a2 - u_a5 - 659 y_a5_proc_0 >= -1269
 c193: u_a2 - u_a5 - 1211 y_a5_proc_1 >= -2555
 c194: u_a6 - u_a2 - 862 y_a2_proc_0 >= -1304
 c195: u_a6 - u_a2 - 1130 y_a2_proc_1 >= -2590
 c196: u_a2 - u_a6 - 1085 y_a6_proc_0 >= -1269
 c197: u_a2 - u_a6 - 1165 y_a6_proc_1 >= -2555
 c198: u_a7 - u_a2 - 284 y_a2_proc_2 >= -1304
 c199: u_a7 - u_a2 - 862 y_a2_proc_0 >= -1304
 c200: u_a7 - u_a2 - 1130 y_a2_proc_1 >= -2590
 c201: u_a2 - u_a7 - 593 y_a7_proc_2 >= -1269
 c202: u_a2 - u_a7 - 403 y_a7_proc_0 >= -1269
 c203: u_a2 - u_a7 - 764 y_a7_proc_1 >= -2555
 c204: u_a8 - u_a2 - 284 y_a2_proc_2 >= -1304
 c205: u_a8 - u_a2 - 862 y_a2_proc_0 >= -1304
 c206: u_a8 - u_a2 - 1130 y_a2_proc_1 >= -2590
 c207: u_a2 - u_a8 - 922 y_a8_proc_2 >= -1269
 c208: u_a2 - u_a8 - 1063 y_a8_proc_0 >= -1269
 c209: u_a2 - u_a8 - 801 y_a8_proc_1 >= -2555
 c210: u_a9 - u_a2 - 284 y_a2_proc_2 >= 0
 c211: u_a9 - u_a2 - 862 y_a2_proc_0 >= -2572
 c212: u_a2 - u_a9 - 1143 y_a9_proc_2 >= -1
 c213: u_a2 - u_a9 - 1208 y_a9_proc_0 >= -2573
 c214: u_a10 - u_a2 - 284 y_a2_proc_2 >= 0
 c215: u_a10 - u_a2 - 862 y_a2_proc_0 >= -2572
 c216: u_a10 - u_a2 - 1130 y_a2_proc_1 >= -2572
 c217: u_a2 - u_a10 - 1166 y_a10_proc_2 >= -1
 c218: u_a2 - u_a10 - 956 y_a10_proc_0 >= -2573
 c219: u_a2 - u_a10 - 1118 y_a10_proc_1 >= -2573
 c220: u_a11 - u_a2 - 862 y_a2_proc_0 >= -2590
 c221: u_a11 - u_a2 - 1130 y_a2_proc_1 >= -1304
 c222: u_a2 - u_a11 - 693 y_a11_proc_0 >= -2555
 c223: u_a2 - u_a11 - 934 y_a11_proc_1 >= -1269
 c224: u_a12 - u_a2 - 284 y_a2_proc_2 >= -1304
 c225: u_a12 - u_a2 - 862 y_a2_proc_0 >= -2590
 c226: u_a12 - u_a2 - 1130 y_a2_proc_1 >= -1304
 c227: u_a2 - u_a12 - 1003 y_a12_proc_2 >= -1269
 c228: u_a2 - u_a12 - 696 y_a12_proc_0 >= -2555
 c229: u_a2 - u_a12 - 1208 y_a12_proc_1 >= -1269
 c230: u_a13 - u_a2 - 862 y_a2_proc_0 >= -1269
 c231: u_a2 - u_a13 - 1150 y_a13_proc_0 >= -1304
 c232: u_a14 - u_a2 - 284 y_a2_proc_2 >= -1269
 c233: u_a14 - u_a2 - 862 y_a2_proc_0 >= -2555
 c234: u_a14 - u_a2 - 1130 y_a2_proc_1 >= -1269
 c235: u_a2 - u_a14 - 1032 y_a14_proc_2 >= -1304
 c236: u_a2 - u_a14 - 898 y_a14_proc_0 >= -2590
 c237: u_a2 - u_a14 - 1233 y_a14_proc_1 >= -1304
 c238: u_a4 - u_a3 - 470 y_a3_proc_2 >= -1304
 c239: u_a3 - u_a4 - 1127 y_a4_proc_2 >= -1269
 c240: u_a5 - u_a3 - 470 y_a3_proc_2 >= -2572
 c241: u_a5 - u_a3 - 542 y_a3_proc_0 >= 0
 c242: u_a5 - u_a3 - 1286 y_a3_proc_1 >= -2572
 c243: u_a3 - u_a5 - 1192 y_a5_proc_2 >= -2573
 c244: u_a3 - u_a5 - 659 y_a5_proc_0 >= -1
 c245: u_a3 - u_a5 - 1211 y_a5_proc_1 >= -2573
 c246: u_a6 - u_a3 - 542 y_a3_proc_0 >= -1
 c247: u_a6 - u_a3 - 1286 y_a3_proc_1 >= -2573
 c248: u_a3 - u_a6 - 1085 y_a6_proc_0 >= 0
 c249: u_a3 - u_a6 - 1165 y_a6_proc_1 >= -2572
 c250: u_a7 - u_a3 - 470 y_a3_proc_2 >= -2555
 c251: u_a7 - u_a3 - 542 y_a3_proc_0 >= 17
 c252: u_a7 - u_a3 - 1286 y_a3_proc_1 >= -2555
 c253: u_a3 - u_a7 - 593 y_a7_proc_2 >= -2590
 c254: u_a3 - u_a7 - 403 y_a7_proc_0 >= -18
 c255: u_a3 - u_a7 - 764 y_a7_proc_1 >= -2590
 c256: u_a8 - u_a3 - 470 y_a3_proc_2 >= -2572
 c257: u_a8 - u_a3 - 542 y_a3_proc_0 >= 0
 c258: u_a8 - u_a3 - 1286 y_a3_proc_1 >= -2572
 c259: u_a3 - u_a8 - 922 y_a8_proc_2 >= -2573
 c260: u_a3 - u_a8 - 1063 y_a8_proc_0 >= -1
 c261: u_a3 - u_a8 - 801 y_a8_proc_1 >= -2573
 c262: u_a9 - u_a3 - 470 y_a3_proc_2 >= -1304
 c263: u_a9 - u_a3 - 542 y_a3_proc_0 >= -1304
 c264: u_a3 - u_a9 - 1143 y_a9_proc_2 >= -1269
 c265: u_a3 - u_a9 - 1208 y_a9_proc_0 >= -1269
 c266: u_a10 - u_a3 - 470 y_a3_proc_2 >= -1304
 c267: u_a10 - u_a3 - 542 y_a3_proc_0 >= -1304
 c268: u_a10 - u_a3 - 1286 y_a3_proc_1 >= -2590
 c269: u_a3 - u_a10 - 1166 y_a10_proc_2 >= -1269
 c270: u_a3 - u_a10 - 956 y_a10_proc_0 >= -1269
 c271: u_a3 - u_a10 - 1118 y_a10_proc_1 >= -2555
 c272: u_a11 - u_a3 - 542 y_a3_proc_0 >= -1304
 c273: u_a11 - u_a3 - 1286 y_a3_proc_1 >= -1304
 c274: u_a3 - u_a11 - 693 y_a11_proc_0 >= -1269
 c275: u_a3 - u_a11 - 934 y_a11_proc_1 >= -1269
 c276: u_a12 - u_a3 - 470 y_a3_proc_2 >= -2590
 c277: u_a12 - u_a3 - 542 y_a3_proc_0 >= -1304
 c278: u_a12 - u_a3 - 1286 y_a3_proc_1 >= -1304
 c279: u_a3 - u_a12 - 1003 y_a12_proc_2 >= -2555
 c280: u_a3 - u_a12 - 696 y_a12_proc_0 >= -1269
 c281: u_a3 - u_a12 - 1208 y_a12_proc_1 >= -1269
 c282: u_a13 - u_a3 - 542 y_a3_proc_0 >= 0
 c283: u_a3 - u_a13 - 1150 y_a13_proc_0 >= -1
 c284: u_a14 - u_a3 - 470 y_a3_proc_2 >= -2590
 c285: u_a14 - u_a3 - 542 y_a3_proc_0 >= -1304
 c286: u_a14 - u_a3 - 1286 y_a3_proc_1 >= -1304
 c287: u_a3 - u_a14 - 1032 y_a14_proc_2 >= -2555
 c288: u_a3 - u_a14 - 898 y_a14_proc_0 >= -1269
 c289: u_a3 - u_a14 - 1233 y_a14_proc_1 >= -1269
 c290: u_a5 - u_a4 - 1127 y_a4_proc_2 >= -1304
 c291: u_a4 - u_a5 - 1192 y_a5_proc_2 >= -1269
 c292: u_a7 - u_a4 - 1127 y_a4_proc_2 >= -1304
 c293: u_a4 - u_a7 - 593 y_a7_proc_2 >= -1269
 c294: u_a8 - u_a4 - 1127 y_a4_proc_2 >= -1304
 c295: u_a4 - u_a8 - 922 y_a8_proc_2 >= -1269
 c296: u_a9 - u_a4 - 1127 y_a4_proc_2 >= -1
 c297: u_a4 - u_a9 - 1143 y_a9_proc_2 >= 0
 c298: u_a10 - u_a4 - 1127 y_a4_proc_2 >= -1
 c299: u_a4 - u_a10 - 1166 y_a10_proc_2 >= 0
 c300: u_a12 - u_a4 - 1127 y_a4_proc_2 >= -1269
 c301: u_a4 - u_a12 - 1003 y_a12_proc_2 >= -1304
 c302: u_a14 - u_a4 - 1127 y_a4_proc_2 >= -1304
 c303: u_a4 - u_a14 - 1032 y_a14_proc_2 >= -1269
 c304: u_a6 - u_a5 - 659 y_a5_proc_0 >= -1
 c305: u_a6 - u_a5 - 1211 y_a5_proc_1 >= -2573
 c306: u_a5 - u_a6 - 1085 y_a6_proc_0 >= 0
 c307: u_a5 - u_a6 - 1165 y_a6_proc_1 >= -2572
 c308: u_a7 - u_a5 - 1192 y_a5_proc_2 >= -2555
 c309: u_a7 - u_a5 - 659 y_a5_proc_0 >= 17
 c310: u_a7 - u_a5 - 1211 y_a5_proc_1 >= -2555
 c311: u_a5 - u_a7 - 593 y_a7_proc_2 >= -2590
 c312: u_a5 - u_a7 - 403 y_a7_proc_0 >= -18
 c313: u_a5 - u_a7 - 764 y_a7_proc_1 >= -2590
 c314: u_a8 - u_a5 - 1192 y_a5_proc_2 >= -2572
 c315: u_a8 - u_a5 - 659 y_a5_proc_0 >= 0
 c316: u_a8 - u_a5 - 1211 y_a5_proc_1 >= -2572
 c317: u_a5 - u_a8 - 922 y_a8_proc_2 >= -2573
 c318: u_a5 - u_a8 - 1063 y_a8_proc_0 >= -1
 c319: u_a5 - u_a8 - 801 y_a8_proc_1 >= -2573
 c320: u_a9 - u_a5 - 1192 y_a5_proc_2 >= -1304
 c321: u_a9 - u_a5 - 659 y_a5_proc_0 >= -1304
 c322: u_a5 - u_a9 - 1143 y_a9_proc_2 >= -1269
 c323: u_a5 - u_a9 - 1208 y_a9_proc_0 >= -1269
 c324: u_a10 - u_a5 - 1192 y_a5_proc_2 >= -1304
 c325: u_a10 - u_a5 - 659 y_a5_proc_0 >= -1304
 c326: u_a10 - u_a5 - 1211 y_a5_proc_1 >= -2590
 c327: u_a5 - u_a10 - 1166 y_a10_proc_2 >= -1269
 c328: u_a5 - u_a10 - 956 y_a10_proc_0 >= -1269
 c329: u_a5 - u_a10 - 1118 y_a10_proc_1 >= -2555
 c330: u_a11 - u_a5 - 659 y_a5_proc_0 >= -1304
 c331: u_a11 - u_a5 - 1211 y_a5_proc_1 >= -1304
 c332: u_a5 - u_a11 - 693 y_a11_proc_0 >= -1269
 c333: u_a5 - u_a11 - 934 y_a11_proc_1 >= -1269
 c334: u_a12 - u_a5 - 1192 y_a5_proc_2 >= -2590
 c335: u_a12 - u_a5 - 659 y_a5_proc_0 >= -1304
 c336: u_a12 - u_a5 - 1211 y_a5_proc_1 >= -1304
 c337: u_a5 - u_a12 - 1003 y_a12_proc_2 >= -2555
 c338: u_a5 - u_a12 - 696 y_a12_proc_0 >= -1269
 c339: u_a5 - u_a12 - 1208 y_a12_proc_1 >= -1269
 c340: u_a13 - u_a5 - 659 y_a5_proc_0 >= 0
 c341: u_a5 - u_a13 - 1150 y_a13_proc_0 >= -1
 c342: u_a14 - u_a5 - 1192 y_a5_proc_2 >= -2590
 c343: u_a14 - u_a5 - 659 y_a5_proc_0 >= -1304
 c344: u_a14 - u_a5 - 1211 y_a5_proc_1 >= -1304
 c345: u_a5 - u_a14 - 1032 y_a14_proc_2 >= -2555
 c346: u_a5 - u_a14 - 898 y_a14_proc_0 >= -1269
 c347: u_a5 - u_a14 - 1233 y_a14_proc_1 >= -1269
 c348: u_a7 - u_a6 - 1085 y_a6_proc_0 >= 17
 c349: u_a7 - u_a6 - 1165 y_a6_proc_1 >= -2555
 c350: u_a6 - u_a7 - 403 y_a7_proc_0 >= -18
 c351: u_a6 - u_a7 - 764 y_a7_proc_1 >= -2590
 c352: u_a8 - u_a6 - 1085 y_a6_proc_0 >= 0
 c353: u_a8 - u_a6 - 1165 y_a6_proc_1 >= -2572
 c354: u_a6 - u_a8 - 1063 y_a8_proc_0 >= -1
 c355: u_a6 - u_a8 - 801 y_a8_proc_1 >= -2573
 c356: u_a9 - u_a6 - 1085 y_a6_proc_0 >= -1304
 c357: u_a6 - u_a9 - 1208 y_a9_proc_0 >= -1269
 c358: u_a10 - u_a6 - 1085 y_a6_proc_0 >= -1304
 c359: u_a10 - u_a6 - 1165 y_a6_proc_1 >= -2590
 c360: u_a6 - u_a10 - 956 y_a10_proc_0 >= -1269
 c361: u_a6 - u_a10 - 1118 y_a10_proc_1 >= -2555
 c362: u_a11 - u_a6 - 1085 y_a6_proc_0 >= -1304
 c363: u_a11 - u_a6 - 1165 y_a6_proc_1 >= -1304
 c364: u_a6 - u_a11 - 693 y_a11_proc_0 >= -1269
 c365: u_a6 - u_a11 - 934 y_a11_proc_1 >= -1269
 c366: u_a12 - u_a6 - 1085 y_a6_proc_0 >= -1269
 c367: u_a12 - u_a6 - 1165 y_a6_proc_1 >= -1269
 c368: u_a6 - u_a12 - 696 y_a12_proc_0 >= -1304
 c369: u_a6 - u_a12 - 1208 y_a12_proc_1 >= -1304
 c370: u_a13 - u_a6 - 1085 y_a6_proc_0 >= 0
 c371: u_a6 - u_a13 - 1150 y_a13_proc_0 >= -1
 c372: u_a14 - u_a6 - 1085 y_a6_proc_0 >= -1304
 c373: u_a14 - u_a6 - 1165 y_a6_proc_1 >= -1304
 c374: u_a6 - u_a14 - 898 y_a14_proc_0 >= -1269
 c375: u_a6 - u_a14 - 1233 y_a14_proc_1 >= -1269
 c376: u_a8 - u_a7 - 593 y_a7_proc_2 >= -2590
 c377: u_a8 - u_a7 - 403 y_a7_proc_0 >= -18
 c378: u_a8 - u_a7 - 764 y_a7_proc_1 >= -2590
 c379: u_a7 - u_a8 - 922 y_a8_proc_2 >= -2555
 c380: u_a7 - u_a8 - 1063 y_a8_proc_0 >= 17
 c381: u_a7 - u_a8 - 801 y_a8_proc_1 >= -2555
 c382: u_a9 - u_a7 - 593 y_a7_proc_2 >= -1269
 c383: u_a9 - u_a7 - 403 y_a7_proc_0 >= -1269
 c384: u_a7 - u_a9 - 1143 y_a9_proc_2 >= -1304
 c385: u_a7 - u_a9 - 1208 y_a9_proc_0 >= -1304
 c386: u_a10 - u_a7 - 593 y_a7_proc_2 >= -1304
 c387: u_a10 - u_a7 - 403 y_a7_proc_0 >= -1304
 c388: u_a10 - u_a7 - 764 y_a7_proc_1 >= -2590
 c389: u_a7 - u_a10 - 1166 y_a10_proc_2 >= -1269
 c390: u_a7 - u_a10 - 956 y_a10_proc_0 >= -1269
 c391: u_a7 - u_a10 - 1118 y_a10_proc_1 >= -2555
 c392: u_a11 - u_a7 - 403 y_a7_proc_0 >= -1269
 c393: u_a11 - u_a7 - 764 y_a7_proc_1 >= -1269
 c394: u_a7 - u_a11 - 693 y_a11_proc_0 >= -1304
 c395: u_a7 - u_a11 - 934 y_a11_proc_1 >= -1304
 c396: u_a12 - u_a7 - 593 y_a7_proc_2 >= -2555
 c397: u_a12 - u_a7 - 403 y_a7_proc_0 >= -1269
 c398: u_a12 - u_a7 - 764 y_a7_proc_1 >= -1269
 c399: u_a7 - u_a12 - 1003 y_a12_proc_2 >= -2590
 c400: u_a7 - u_a12 - 696 y_a12_proc_0 >= -1304
 c401: u_a7 - u_a12 - 1208 y_a12_proc_1 >= -1304
 c402: u_a13 - u_a7 - 403 y_a7_proc_0 >= -17
 c403: u_a7 - u_a13 - 1150 y_a13_proc_0 >= 16
 c404: u_a14 - u_a7 - 593 y_a7_proc_2 >= -2590
 c405: u_a14 - u_a7 - 403 y_a7_proc_0 >= -1304
 c406: u_a14 - u_a7 - 764 y_a7_proc_1 >= -1304
 c407: u_a7 - u_a14 - 1032 y_a14_proc_2 >= -2555
 c408: u_a7 - u_a14 - 898 y_a14_proc_0 >= -1269
 c409: u_a7 - u_a14 - 1233 y_a14_proc_1 >= -1269
 c410: u_a9 - u_a8 - 922 y_a8_proc_2 >= -1304
 c411: u_a9 - u_a8 - 1063 y_a8_proc_0 >= -1304
 c412: u_a8 - u_a9 - 1143 y_a9_proc_2 >= -1269
 c413: u_a8 - u_a9 - 1208 y_a9_proc_0 >= -1269
 c414: u_a10 - u_a8 - 922 y_a8_proc_2 >= -1304
 c415: u_a10 - u_a8 - 1063 y_a8_proc_0 >= -1304
 c416: u_a10 - u_a8 - 801 y_a8_proc_1 >= -2590
 c417: u_a8 - u_a10 - 1166 y_a10_proc_2 >= -1269
 c418: u_a8 - u_a10 - 956 y_a10_proc_0 >= -1269
 c419: u_a8 - u_a10 - 1118 y_a10_proc_1 >= -2555
 c420: u_a11 - u_a8 - 1063 y_a8_proc_0 >= -1304
 c421: u_a11 - u_a8 - 801 y_a8_proc_1 >= -1304
 c422: u_a8 - u_a11 - 693 y_a11_proc_0 >= -1269
 c423: u_a8 - u_a11 - 934 y_a11_proc_1 >= -1269
 c424: u_a12 - u_a8 - 922 y_a8_proc_2 >= -2590
 c425: u_a12 - u_a8 - 1063 y_a8_proc_0 >= -1304
 c426: u_a12 - u_a8 - 801 y_a8_proc_1 >= -1304
 c427: u_a8 - u_a12 - 1003 y_a12_proc_2 >= -2555
 c428: u_a8 - u_a12 - 696 y_a12_proc_0 >= -1269
 c429: u_a8 - u_a12 - 1208 y_a12_proc_1 >= -1269
 c430: u_a13 - u_a8 - 1063 y_a8_proc_0 >= 0
 c431: u_a8 - u_a13 - 1150 y_a13_proc_0 >= -1
 c432: u_a14 - u_a8 - 922 y_a8_proc_2 >= -2590
 c433: u_a14 - u_a8 - 1063 y_a8_proc_0 >= -1304
 c434: u_a14 - u_a8 - 801 y_a8_proc_1 >= -1304
 c435: u_a8 - u_a14 - 1032 y_a14_proc_2 >= -2555
 c436: u_a8 - u_a14 - 898 y_a14_proc_0 >= -1269
 c437: u_a8 - u_a14 - 1233 y_a14_proc_1 >= -1269
 c438: u_a10 - u_a9 - 1143 y_a9_proc_2 >= 0
 c439: u_a10 - u_a9 - 1208 y_a9_proc_0 >= -2572
 c440: u_a9 - u_a10 - 1166 y_a10_proc_2 >= -1
 c441: u_a9 - u_a10 - 956 y_a10_proc_0 >= -2573
 c442: u_a11 - u_a9 - 1208 y_a9_proc_0 >= -2590
 c443: u_a9 - u_a11 - 693 y_a11_proc_0 >= -2555
 c444: u_a12 - u_a9 - 1143 y_a9_proc_2 >= -1304
 c445: u_a12 - u_a9 - 1208 y_a9_proc_0 >= -2590
 c446: u_a9 - u_a12 - 1003 y_a12_proc_2 >= -1269
 c447: u_a9 - u_a12 - 696 y_a12_proc_0 >= -2555
 c448: u_a13 - u_a9 - 1208 y_a9_proc_0 >= -1304
 c449: u_a9 - u_a13 - 1150 y_a13_proc_0 >= -1269
 c450: u_a14 - u_a9 - 1143 y_a9_proc_2 >= -1269
 c451: u_a14 - u_a9 - 1208 y_a9_proc_0 >= -2555
 c452: u_a9 - u_a14 - 1032 y_a14_proc_2 >= -1304
 c453: u_a9 - u_a14 - 898 y_a14_proc_0 >= -2590
 c454: u_a11 - u_a10 - 956 y_a10_proc_0 >= -2590
 c455: u_a11 - u_a10 - 1118 y_a10_proc_1 >= -1304
 c456: u_a10 - u_a11 - 693 y_a11_proc_0 >= -2555
 c457: u_a10 - u_a11 - 934 y_a11_proc_1 >= -1269
 c458: u_a12 - u_a10 - 1166 y_a10_proc_2 >= -1304
 c459: u_a12 - u_a10 - 956 y_a10_proc_0 >= -2590
 c460: u_a12 - u_a10 - 1118 y_a10_proc_1 >= -1304
 c461: u_a10 - u_a12 - 1003 y_a12_proc_2 >= -1269
 c462: u_a10 - u_a12 - 696 y_a12_proc_0 >= -2555
 c463: u_a10 - u_a12 - 1208 y_a12_proc_1 >= -1269
 c464: u_a13 - u_a10 - 956 y_a10_proc_0 >= -1304
 c465: u_a10 - u_a13 - 1150 y_a13_proc_0 >= -1269
 c466: u_a14 - u_a10 - 1166 y_a10_proc_2 >= -1304
 c467: u_a14 - u_a10 - 956 y_a10_proc_0 >= -2590
 c468: u_a14 - u_a10 - 1118 y_a10_proc_1 >= -1304
 c469: u_a10 - u_a14 - 1032 y_a14_proc_2 >= -1269
 c470: u_a10 - u_a14 - 898 y_a14_proc_0 >= -2555
 c471: u_a10 - u_a14 - 1233 y_a14_proc_1 >= -1269
 c472: u_a12 - u_a11 - 693 y_a11_proc_0 >= -2573
 c473: u_a12 - u_a11 - 934 y_a11_proc_1 >= -1
 c474: u_a11 - u_a12 - 696 y_a12_proc_0 >= -2572
 c475: u_a11 - u_a12 - 1208 y_a12_proc_1 >= 0
 c476: u_a13 - u_a11 - 693 y_a11_proc_0 >= -1269
 c477: u_a11 - u_a13 - 1150 y_a13_proc_0 >= -1304
 c478: u_a14 - u_a11 - 693 y_a11_proc_0 >= -2555
 c479: u_a14 - u_a11 - 934 y_a11_proc_1 >= 17
 c480: u_a11 - u_a14 - 898 y_a14_proc_0 >= -2590
 c481: u_a11 - u_a14 - 1233 y_a14_proc_1 >= -18
 c482: u_a13 - u_a12 - 696 y_a12_proc_0 >= -1304
 c483: u_a12 - u_a13 - 1150 y_a13_proc_0 >= -1269
 c484: u_a14 - u_a12 - 1003 y_a12_proc_2 >= -2555
 c485: u_a14 - u_a12 - 696 y_a12_proc_0 >= -2555
 c486: u_a14 - u_a12 - 1208 y_a12_proc_1 >= 17
 c487: u_a12 - u_a14 - 1032 y_a14_proc_2 >= -2590
 c488: u_a12 - u_a14 - 898 y_a14_proc_0 >= -2590
 c489: u_a12 - u_a14 - 1233 y_a14_proc_1 >= -18
 c490: u_a14 - u_a13 - 1150 y_a13_proc_0 >= -1304
 c491: u_a13 - u_a14 - 898 y_a14_proc_0 >= -1269

Bounds
End
